instances/knapsack/discrete/knapsack_20_11.kp
80889
20
99

9 0.9 82
90 9.0 6
48 4.8 100
69 6.9 36
42 4.2 17
87 8.7 29
15 1.5 89
25 2.5 31
71 7.1 66
84 8.4 98
25 2.5 99
85 8.5 23
90 9.0 15
10 1.0 2
30 3.0 83
66 6.6 92
75 7.5 42
58 5.8 54
39 3.9 14
24 2.4 45

28318
108

[0.63 5.08 3.62 4.06 2.98 0.12 1.71 3.03 3.02 2.94 2.41 0.18 0.02 5.03 4.15 2.3 3.14 4.39 0.42 3.02]

[46 58 52 73 78 72 43 46 23 64 78 85 54 78 87 91 47 54 3 4]
